nb_edges = 45;
e_name = ["aa", "ab", "ac", "ad", "ae", "af", "ag", "ah", "ai", "aj", "ak", "al", "am", "an", "ao", "ap", "aq", "ar", "as", "at", "au", "av", "aw", "ax", "ay", "az", "ba", "bb", "bc", "bd", "be", "bf", "bg", "bh", "bi", "bj", "bk", "bl", "bm", "bn", "bo", "bp", "bq", "br", "bs"];
e_type = [border, border, inter, inter, inter, inter, inter, inter, inter, inter, inter, inter, inter, inter, inter, platform, platform, platform, platform, platform, platform, platform, platform, platform, platform, platform, platform, platform, platform, platform, inter, inter, inter, inter, inter, inter, inter, inter, inter, inter, inter, inter, inter, border, border];
e_cols = [{1}, {2}, {3}, {4}, {4}, {5}, {6}, {5}, {8, 7}, {7}, {7}, {8}, {8}, {8}, {8}, {9}, {9}, {9}, {9}, {9}, {10}, {10}, {10}, {10}, {10}, {11}, {11}, {11}, {11}, {11}, {12, 13}, {12}, {12}, {12}, {12}, {13}, {13}, {14}, {15}, {14}, {16}, {17}, {17}, {18}, {19}];
nb_trains = 9;
t_name = ["T1", "T2", "T3", "T4", "T5", "T6", "T7", "T8", "T9"];
t_routes = [{1}, {2}, {3, 4, 5, 6, 7}, {8}, {9}, {10}, {11}, {12}, {13}];
t_est = [588, 977, 1370, 670, 1250, 1192, 1273, 588, 588];
t_type = [origin, origin, pass, vanish, origin, vanish, origin, reverse, reverse];
nb_routes = 13;
r_name = ["I2W", "I4E", "IE1-I1W", "IE2-I2W", "IE3-I3W", "IE4-I4W", "IE5-I5W", "IE2", "I1W", "IE5", "I3W", "I2W-I2W", "I1W-I1W"];
r_it_1 = ["I2W", "I4E", "IE1", "IE2", "IE3", "IE4", "IE5", "IE2", "I1W", "IE5", "I3W", "I2W", "I1W"];
r_it_2 = ["", "", "I1W", "I2W", "I3W", "I4W", "I5W", "", "", "", "", "I2W", "I1W"];
r_platform_name = ["S_II", "S_IV", "S_I", "S_II", "S_III", "S_IV", "S_V", "S_II", "S_I", "S_V", "S_III", "S_II", "S_I"];
r_dwell_min = [0, 0, 100, 100, 100, 100, 100, 100, 0, 100, 0, 100, 100];
r_dur_min = [60, 60, 120, 120, 120, 120, 120, 60, 60, 60, 60, 120, 120];
r_overlap = [0, 0, 1, 1, 1, 1, 1, 0, 0, 0, 0, 1, 1];
r_block_start = [1, 9, 17, 28, 41, 54, 67, 80, 88, 95, 103, 111, 119];
r_block_end = [8, 16, 27, 40, 53, 66, 79, 87, 94, 102, 110, 118, 125];
r_train = [1, 2, 3, 3, 3, 3, 3, 4, 5, 6, 7, 8, 9];
nb_blocks = 125;
b_edge = [27, 22, 17, 12, 10, 6, 4, 2, 19, 24, 29, 34, 37, 39, 41, 44, 45, 42, 38, 31, 26, 21, 16, 9, 6, 4, 2, 45, 42, 38, 36, 32, 27, 22, 17, 12, 10, 6, 4, 2, 45, 42, 38, 36, 33, 28, 23, 18, 13, 10, 6, 4, 2, 45, 43, 40, 37, 34, 29, 24, 19, 14, 11, 8, 5, 2, 45, 43, 40, 37, 35, 30, 25, 20, 15, 11, 8, 5, 2, 45, 42, 38, 36, 32, 27, 22, 17, 26, 21, 16, 9, 6, 4, 2, 45, 43, 40, 37, 35, 30, 25, 20, 28, 23, 18, 13, 10, 6, 4, 2, 27, 22, 17, 12, 10, 6, 4, 2, 26, 21, 16, 9, 6, 4, 2];
b_dur = [0, 0, 0, 12, 24, 36, 48, 60, 0, 0, 0, 12, 24, 36, 48, 60, 8, 17, 25, 34, 42, 51, 61, 15, 30, 45, 60, 7, 15, 22, 30, 37, 45, 52, 61, 12, 24, 36, 48, 60, 7, 15, 22, 30, 37, 45, 52, 61, 12, 24, 36, 48, 60, 7, 15, 22, 30, 37, 45, 52, 61, 12, 24, 36, 48, 60, 7, 15, 22, 30, 37, 45, 52, 61, 12, 24, 36, 48, 60, 7, 15, 22, 30, 37, 45, 52, 60, 0, 0, 0, 15, 30, 45, 60, 7, 15, 22, 30, 37, 45, 52, 60, 0, 0, 0, 12, 24, 36, 48, 60, 0, 0, 0, 12, 24, 36, 48, 60, 0, 0, 0, 15, 30, 45, 60];
b_start_offset = [0, 0, 0, 0, -12, -24, -36, -48, 0, 0, 0, 0, -12, -24, -36, -48, 0, -8, -17, -25, -34, -42, -51, -1, -15, -30, -45, 0, -7, -15, -22, -30, -37, -45, -52, -1, -12, -24, -36, -48, 0, -7, -15, -22, -30, -37, -45, -52, -1, -12, -24, -36, -48, 0, -7, -15, -22, -30, -37, -45, -52, -1, -12, -24, -36, -48, 0, -7, -15, -22, -30, -37, -45, -52, -1, -12, -24, -36, -48, 0, -7, -15, -22, -30, -37, -45, -52, 0, 0, 0, 0, -15, -30, -45, 0, -7, -15, -22, -30, -37, -45, -52, 0, 0, 0, 0, -12, -24, -36, -48, 0, 0, 0, -1, -12, -24, -36, -48, 0, 0, 0, -1, -15, -30, -45];
b_stop = [true, true, true, false, false, false, false, false, true, true, true, false, false, false, false, false, false, false, false, false, false, false, true, false, false, false, false, false, false, false, false, false, false, false, true, false, false, false, false, false, false, false, false, false, false, false, false, true, false, false, false, false, false, false, false, false, false, false, false, false, true, false, false, false, false, false, false, false, false, false, false, false, false, true, false, false, false, false, false, false, false, false, false, false, false, false, true, true, true, true, false, false, false, false, false, false, false, false, false, false, false, true, true, true, true, false, false, false, false, false, true, true, true, false, false, false, false, false, true, true, true, false, false, false, false];
b_route = [1, 1, 1, 1, 1, 1, 1, 1, 2, 2, 2, 2, 2, 2, 2, 2, 3, 3, 3, 3, 3, 3, 3, 3, 3, 3, 3, 4, 4, 4, 4, 4, 4, 4, 4, 4, 4, 4, 4, 4, 5, 5, 5, 5, 5, 5, 5, 5, 5, 5, 5, 5, 5, 6, 6, 6, 6, 6, 6, 6, 6, 6, 6, 6, 6, 6, 7, 7, 7, 7, 7, 7, 7, 7, 7, 7, 7, 7, 7, 8, 8, 8, 8, 8, 8, 8, 8, 9, 9, 9, 9, 9, 9, 9, 10, 10, 10, 10, 10, 10, 10, 10, 11, 11, 11, 11, 11, 11, 11, 11, 12, 12, 12, 12, 12, 12, 12, 12, 13, 13, 13, 13, 13, 13, 13];
